% Auto-generated by scripts/generate_dzn.py
% problem_type   = nonogram
% instance       = nonogram_53
% source_json    = instances_json/0_low_blowup/nonogram_53.json
% blowup         = 1.099337748344371
% representation = NFA

mode = 1;

height = 15;
width = 15;
Q = 13;
S = 2;
row_q0 = [1, 1, 1, 1, 1, 1, 1, 1, 1, 1, 1, 1, 1, 1, 1];
row_F = [{10}, {8}, {11}, {12}, {7}, {9}, {9}, {13}, {11}, {10}, {9}, {11}, {7}, {12}, {8}];
col_q0 = [1, 1, 1, 1, 1, 1, 1, 1, 1, 1, 1, 1, 1, 1, 1];
col_F = [{12}, {10}, {8}, {10}, {8}, {11}, {7}, {10}, {13}, {12}, {10}, {11}, {8}, {12}, {13}];
row_d_dfa = array3d(1..15, 1..13, 1..2, [
  % k = 1
    0, 0,
    0, 0,
    0, 0,
    0, 0,
    0, 0,
    0, 0,
    0, 0,
    0, 0,
    0, 0,
    0, 0,
    0, 0,
    0, 0,
    0, 0,

  % k = 2
    0, 0,
    0, 0,
    0, 0,
    0, 0,
    0, 0,
    0, 0,
    0, 0,
    0, 0,
    0, 0,
    0, 0,
    0, 0,
    0, 0,
    0, 0,

  % k = 3
    0, 0,
    0, 0,
    0, 0,
    0, 0,
    0, 0,
    0, 0,
    0, 0,
    0, 0,
    0, 0,
    0, 0,
    0, 0,
    0, 0,
    0, 0,

  % k = 4
    0, 0,
    0, 0,
    0, 0,
    0, 0,
    0, 0,
    0, 0,
    0, 0,
    0, 0,
    0, 0,
    0, 0,
    0, 0,
    0, 0,
    0, 0,

  % k = 5
    0, 0,
    0, 0,
    0, 0,
    0, 0,
    0, 0,
    0, 0,
    0, 0,
    0, 0,
    0, 0,
    0, 0,
    0, 0,
    0, 0,
    0, 0,

  % k = 6
    0, 0,
    0, 0,
    0, 0,
    0, 0,
    0, 0,
    0, 0,
    0, 0,
    0, 0,
    0, 0,
    0, 0,
    0, 0,
    0, 0,
    0, 0,

  % k = 7
    0, 0,
    0, 0,
    0, 0,
    0, 0,
    0, 0,
    0, 0,
    0, 0,
    0, 0,
    0, 0,
    0, 0,
    0, 0,
    0, 0,
    0, 0,

  % k = 8
    0, 0,
    0, 0,
    0, 0,
    0, 0,
    0, 0,
    0, 0,
    0, 0,
    0, 0,
    0, 0,
    0, 0,
    0, 0,
    0, 0,
    0, 0,

  % k = 9
    0, 0,
    0, 0,
    0, 0,
    0, 0,
    0, 0,
    0, 0,
    0, 0,
    0, 0,
    0, 0,
    0, 0,
    0, 0,
    0, 0,
    0, 0,

  % k = 10
    0, 0,
    0, 0,
    0, 0,
    0, 0,
    0, 0,
    0, 0,
    0, 0,
    0, 0,
    0, 0,
    0, 0,
    0, 0,
    0, 0,
    0, 0,

  % k = 11
    0, 0,
    0, 0,
    0, 0,
    0, 0,
    0, 0,
    0, 0,
    0, 0,
    0, 0,
    0, 0,
    0, 0,
    0, 0,
    0, 0,
    0, 0,

  % k = 12
    0, 0,
    0, 0,
    0, 0,
    0, 0,
    0, 0,
    0, 0,
    0, 0,
    0, 0,
    0, 0,
    0, 0,
    0, 0,
    0, 0,
    0, 0,

  % k = 13
    0, 0,
    0, 0,
    0, 0,
    0, 0,
    0, 0,
    0, 0,
    0, 0,
    0, 0,
    0, 0,
    0, 0,
    0, 0,
    0, 0,
    0, 0,

  % k = 14
    0, 0,
    0, 0,
    0, 0,
    0, 0,
    0, 0,
    0, 0,
    0, 0,
    0, 0,
    0, 0,
    0, 0,
    0, 0,
    0, 0,
    0, 0,

  % k = 15
    0, 0,
    0, 0,
    0, 0,
    0, 0,
    0, 0,
    0, 0,
    0, 0,
    0, 0,
    0, 0,
    0, 0,
    0, 0,
    0, 0,
    0, 0
]);
row_d_nfa = array3d(1..15, 1..13, 1..2, [
  % k = 1
    {1}, {2},
    {}, {3},
    {4}, {},
    {4}, {5},
    {6}, {},
    {6}, {7},
    {}, {8},
    {9}, {},
    {9}, {10},
    {10}, {},
    {}, {},
    {}, {},
    {}, {},

  % k = 2
    {1}, {2},
    {3}, {},
    {3}, {4},
    {5}, {},
    {5}, {6},
    {7}, {},
    {7}, {8},
    {8}, {},
    {}, {},
    {}, {},
    {}, {},
    {}, {},
    {}, {},

  % k = 3
    {1}, {2},
    {}, {3},
    {4}, {},
    {4}, {5},
    {6}, {},
    {6}, {7},
    {8}, {},
    {8}, {9},
    {}, {10},
    {}, {11},
    {11}, {},
    {}, {},
    {}, {},

  % k = 4
    {1}, {2},
    {}, {3},
    {4}, {},
    {4}, {5},
    {}, {6},
    {}, {7},
    {}, {8},
    {}, {9},
    {}, {10},
    {11}, {},
    {11}, {12},
    {12}, {},
    {}, {},

  % k = 5
    {1}, {2},
    {}, {3},
    {4}, {},
    {4}, {5},
    {6}, {},
    {6}, {7},
    {7}, {},
    {}, {},
    {}, {},
    {}, {},
    {}, {},
    {}, {},
    {}, {},

  % k = 6
    {1}, {2},
    {}, {3},
    {4}, {},
    {4}, {5},
    {}, {6},
    {}, {7},
    {8}, {},
    {8}, {9},
    {9}, {},
    {}, {},
    {}, {},
    {}, {},
    {}, {},

  % k = 7
    {1}, {2},
    {}, {3},
    {4}, {},
    {4}, {5},
    {6}, {},
    {6}, {7},
    {8}, {},
    {8}, {9},
    {9}, {},
    {}, {},
    {}, {},
    {}, {},
    {}, {},

  % k = 8
    {1}, {2},
    {3}, {},
    {3}, {4},
    {5}, {},
    {5}, {6},
    {7}, {},
    {7}, {8},
    {9}, {},
    {9}, {10},
    {}, {11},
    {12}, {},
    {12}, {13},
    {13}, {},

  % k = 9
    {1}, {2},
    {}, {3},
    {4}, {},
    {4}, {5},
    {6}, {},
    {6}, {7},
    {}, {8},
    {}, {9},
    {10}, {},
    {10}, {11},
    {11}, {},
    {}, {},
    {}, {},

  % k = 10
    {1}, {2},
    {3}, {},
    {3}, {4},
    {5}, {},
    {5}, {6},
    {7}, {},
    {7}, {8},
    {9}, {},
    {9}, {10},
    {10}, {},
    {}, {},
    {}, {},
    {}, {},

  % k = 11
    {1}, {2},
    {3}, {},
    {3}, {4},
    {}, {5},
    {}, {6},
    {}, {7},
    {8}, {},
    {8}, {9},
    {9}, {},
    {}, {},
    {}, {},
    {}, {},
    {}, {},

  % k = 12
    {1}, {2},
    {3}, {},
    {3}, {4},
    {}, {5},
    {}, {6},
    {7}, {},
    {7}, {8},
    {}, {9},
    {}, {10},
    {}, {11},
    {11}, {},
    {}, {},
    {}, {},

  % k = 13
    {1}, {2},
    {3}, {},
    {3}, {4},
    {}, {5},
    {6}, {},
    {6}, {7},
    {7}, {},
    {}, {},
    {}, {},
    {}, {},
    {}, {},
    {}, {},
    {}, {},

  % k = 14
    {1}, {2},
    {3}, {},
    {3}, {4},
    {5}, {},
    {5}, {6},
    {7}, {},
    {7}, {8},
    {}, {9},
    {10}, {},
    {10}, {11},
    {}, {12},
    {12}, {},
    {}, {},

  % k = 15
    {1}, {2},
    {}, {3},
    {}, {4},
    {5}, {},
    {5}, {6},
    {7}, {},
    {7}, {8},
    {8}, {},
    {}, {},
    {}, {},
    {}, {},
    {}, {},
    {}, {}
]);
col_d_dfa = array3d(1..15, 1..13, 1..2, [
  % k = 1
    0, 0,
    0, 0,
    0, 0,
    0, 0,
    0, 0,
    0, 0,
    0, 0,
    0, 0,
    0, 0,
    0, 0,
    0, 0,
    0, 0,
    0, 0,

  % k = 2
    0, 0,
    0, 0,
    0, 0,
    0, 0,
    0, 0,
    0, 0,
    0, 0,
    0, 0,
    0, 0,
    0, 0,
    0, 0,
    0, 0,
    0, 0,

  % k = 3
    0, 0,
    0, 0,
    0, 0,
    0, 0,
    0, 0,
    0, 0,
    0, 0,
    0, 0,
    0, 0,
    0, 0,
    0, 0,
    0, 0,
    0, 0,

  % k = 4
    0, 0,
    0, 0,
    0, 0,
    0, 0,
    0, 0,
    0, 0,
    0, 0,
    0, 0,
    0, 0,
    0, 0,
    0, 0,
    0, 0,
    0, 0,

  % k = 5
    0, 0,
    0, 0,
    0, 0,
    0, 0,
    0, 0,
    0, 0,
    0, 0,
    0, 0,
    0, 0,
    0, 0,
    0, 0,
    0, 0,
    0, 0,

  % k = 6
    0, 0,
    0, 0,
    0, 0,
    0, 0,
    0, 0,
    0, 0,
    0, 0,
    0, 0,
    0, 0,
    0, 0,
    0, 0,
    0, 0,
    0, 0,

  % k = 7
    0, 0,
    0, 0,
    0, 0,
    0, 0,
    0, 0,
    0, 0,
    0, 0,
    0, 0,
    0, 0,
    0, 0,
    0, 0,
    0, 0,
    0, 0,

  % k = 8
    0, 0,
    0, 0,
    0, 0,
    0, 0,
    0, 0,
    0, 0,
    0, 0,
    0, 0,
    0, 0,
    0, 0,
    0, 0,
    0, 0,
    0, 0,

  % k = 9
    0, 0,
    0, 0,
    0, 0,
    0, 0,
    0, 0,
    0, 0,
    0, 0,
    0, 0,
    0, 0,
    0, 0,
    0, 0,
    0, 0,
    0, 0,

  % k = 10
    0, 0,
    0, 0,
    0, 0,
    0, 0,
    0, 0,
    0, 0,
    0, 0,
    0, 0,
    0, 0,
    0, 0,
    0, 0,
    0, 0,
    0, 0,

  % k = 11
    0, 0,
    0, 0,
    0, 0,
    0, 0,
    0, 0,
    0, 0,
    0, 0,
    0, 0,
    0, 0,
    0, 0,
    0, 0,
    0, 0,
    0, 0,

  % k = 12
    0, 0,
    0, 0,
    0, 0,
    0, 0,
    0, 0,
    0, 0,
    0, 0,
    0, 0,
    0, 0,
    0, 0,
    0, 0,
    0, 0,
    0, 0,

  % k = 13
    0, 0,
    0, 0,
    0, 0,
    0, 0,
    0, 0,
    0, 0,
    0, 0,
    0, 0,
    0, 0,
    0, 0,
    0, 0,
    0, 0,
    0, 0,

  % k = 14
    0, 0,
    0, 0,
    0, 0,
    0, 0,
    0, 0,
    0, 0,
    0, 0,
    0, 0,
    0, 0,
    0, 0,
    0, 0,
    0, 0,
    0, 0,

  % k = 15
    0, 0,
    0, 0,
    0, 0,
    0, 0,
    0, 0,
    0, 0,
    0, 0,
    0, 0,
    0, 0,
    0, 0,
    0, 0,
    0, 0,
    0, 0
]);
col_d_nfa = array3d(1..15, 1..13, 1..2, [
  % k = 1
    {1}, {2},
    {3}, {},
    {3}, {4},
    {5}, {},
    {5}, {6},
    {7}, {},
    {7}, {8},
    {9}, {},
    {9}, {10},
    {11}, {},
    {11}, {12},
    {12}, {},
    {}, {},

  % k = 2
    {1}, {2},
    {3}, {},
    {3}, {4},
    {}, {5},
    {}, {6},
    {7}, {},
    {7}, {8},
    {9}, {},
    {9}, {10},
    {10}, {},
    {}, {},
    {}, {},
    {}, {},

  % k = 3
    {1}, {2},
    {3}, {},
    {3}, {4},
    {}, {5},
    {6}, {},
    {6}, {7},
    {}, {8},
    {8}, {},
    {}, {},
    {}, {},
    {}, {},
    {}, {},
    {}, {},

  % k = 4
    {1}, {2},
    {3}, {},
    {3}, {4},
    {}, {5},
    {}, {6},
    {7}, {},
    {7}, {8},
    {9}, {},
    {9}, {10},
    {10}, {},
    {}, {},
    {}, {},
    {}, {},

  % k = 5
    {1}, {2},
    {}, {3},
    {}, {4},
    {5}, {},
    {5}, {6},
    {7}, {},
    {7}, {8},
    {8}, {},
    {}, {},
    {}, {},
    {}, {},
    {}, {},
    {}, {},

  % k = 6
    {1}, {2},
    {}, {3},
    {4}, {},
    {4}, {5},
    {6}, {},
    {6}, {7},
    {8}, {},
    {8}, {9},
    {10}, {},
    {10}, {11},
    {11}, {},
    {}, {},
    {}, {},

  % k = 7
    {1}, {2},
    {3}, {},
    {3}, {4},
    {5}, {},
    {5}, {6},
    {}, {7},
    {7}, {},
    {}, {},
    {}, {},
    {}, {},
    {}, {},
    {}, {},
    {}, {},

  % k = 8
    {1}, {2},
    {3}, {},
    {3}, {4},
    {}, {5},
    {6}, {},
    {6}, {7},
    {}, {8},
    {}, {9},
    {}, {10},
    {10}, {},
    {}, {},
    {}, {},
    {}, {},

  % k = 9
    {1}, {2},
    {3}, {},
    {3}, {4},
    {5}, {},
    {5}, {6},
    {7}, {},
    {7}, {8},
    {9}, {},
    {9}, {10},
    {}, {11},
    {}, {12},
    {}, {13},
    {13}, {},

  % k = 10
    {1}, {2},
    {3}, {},
    {3}, {4},
    {}, {5},
    {6}, {},
    {6}, {7},
    {}, {8},
    {9}, {},
    {9}, {10},
    {11}, {},
    {11}, {12},
    {12}, {},
    {}, {},

  % k = 11
    {1}, {2},
    {3}, {},
    {3}, {4},
    {5}, {},
    {5}, {6},
    {7}, {},
    {7}, {8},
    {9}, {},
    {9}, {10},
    {10}, {},
    {}, {},
    {}, {},
    {}, {},

  % k = 12
    {1}, {2},
    {}, {3},
    {4}, {},
    {4}, {5},
    {6}, {},
    {6}, {7},
    {8}, {},
    {8}, {9},
    {}, {10},
    {}, {11},
    {11}, {},
    {}, {},
    {}, {},

  % k = 13
    {1}, {2},
    {3}, {},
    {3}, {4},
    {5}, {},
    {5}, {6},
    {7}, {},
    {7}, {8},
    {8}, {},
    {}, {},
    {}, {},
    {}, {},
    {}, {},
    {}, {},

  % k = 14
    {1}, {2},
    {}, {3},
    {4}, {},
    {4}, {5},
    {6}, {},
    {6}, {7},
    {8}, {},
    {8}, {9},
    {}, {10},
    {11}, {},
    {11}, {12},
    {12}, {},
    {}, {},

  % k = 15
    {1}, {2},
    {3}, {},
    {3}, {4},
    {5}, {},
    {5}, {6},
    {7}, {},
    {7}, {8},
    {9}, {},
    {9}, {10},
    {11}, {},
    {11}, {12},
    {}, {13},
    {13}, {}
]);
